33D32945 STP File, STP Format Version 1.0

SECTION Comment
Name grid_16
END

SECTION Graph
Nodes 16
Edges 24
E 13 7 9
E 1 2 8
E 1 3 13
E 11 6 18
E 2 4 19
E 2 5 3
E 3 4 7
E 10 5 14
E 3 7 6
E 4 6 19
E 14 15 14
E 15 16 3
E 5 6 6
E 13 14 19
E 4 8 1
E 10 11 19
E 11 12 2
E 15 9 16
E 12 16 3
E 6 9 3
E 7 8 13
E 14 8 6
E 8 9 1
E 12 9 16
END

SECTION Terminals
Terminals 6
T 1
T 5
T 6
T 8
T 12
T 16
END

EOF
